#######################################
### Exact MIP solver for the HHCRSP ###
#######################################
-- Instance file: new-instances/HHCRSP_75_15_59_1.0_R_R.txt
-- Max threads: 4
-- Time limit: 999999 seconds
-- Use initial solution: No
Trivial flow violations prevented generating 20348 variables.
Model exported.
Version identifier: 20.1.0.0 | 2020-11-10 | 9bedb6d68
CPXPARAM_Threads                                 4
CPXPARAM_TimeLimit                               999999
Parallel mode: deterministic, using up to 4 threads for concurrent optimization:
 * Starting dual Simplex on 1 thread...
 * Starting Barrier on 3 threads...
Tried aggregator 1 time.
LP Presolve eliminated 3534 rows and 893 columns.
Reduced LP has 27828 rows, 26734 columns, and 286617 nonzeros.
Presolve time = 0.13 sec. (76.97 ticks)
Symmetry aggregator did 30568 additional substitutions.

Iteration log . . .
Iteration:     1   Dual objective     =             0.000000
Iteration:   379   Dual objective     =           179.666667

Dual crossover.
  Dual:  Fixing 234 variables.
      233 DMoves:  Infeasibility  6.32272029e-14  Objective  1.79666667e+02
        0 DMoves:  Infeasibility  5.07927051e-14  Objective  1.79666667e+02
  Dual:  Pushed 12, exchanged 222.
  Primal:  Fixing 88 variables.
       87 PMoves:  Infeasibility  3.88578059e-16  Objective  1.79666667e+02
        0 PMoves:  Infeasibility  4.71844785e-16  Objective  1.79666667e+02
  Primal:  Pushed 51, exchanged 37.

Dual simplex solved model.


Solution status from MIP model:
-- Processing time: 0.231 sec.
-- Memory used: 86.1992 MB
-- Best bound: inf
-- Obj value: 179.667
-- Gap: inf%
-- Total distance: 539
-- Total tardiness: 0
-- Largest tardiness: 0
